decision_x1=[0,2];
decision_x2=[0,2];
decision_x3=[0,2];
decision_x4=[0,2];
decision_x5=[0,2];
decision_x6=[0,2];
decision_x7=[0,2];
decision_x8=[0,2];
decision_x9=[0,2];
decision_x10=[0,2];
decision_x11=[0,2];
decision_x12=[0,2];
random_y1=[0,2];
random_y2=[0,2];
random_y3=[0,2];
constraint_x2_x1=[
0,0,8.9|
0,1,0.098|
0,2,8.6|
1,0,9.8|
1,1,1.3|
1,2,3|
2,0,8.9|
2,1,0.17|
2,2,9.5|
];
constraint_x3_x2=[
0,0,2|
0,1,2.5|
0,2,9.3|
1,0,9.5|
1,1,4.9|
1,2,2.7|
2,0,5.9|
2,1,6.3|
2,2,9.6|
];
constraint_x4_x3=[
0,0,3.6|
0,1,5|
0,2,0.13|
1,0,6.3|
1,1,3.4|
1,2,7.6|
2,0,2.2|
2,1,5.1|
2,2,1.4|
];
constraint_x5_x2=[
0,0,9.8|
0,1,9|
0,2,1.7|
1,0,0.095|
1,1,4.1|
1,2,8.6|
2,0,2.4|
2,1,0.87|
2,2,7.4|
];
constraint_x5_x3=[
0,0,8.7|
0,1,7.9|
0,2,8.3|
1,0,5.5|
1,1,9.3|
1,2,2.7|
2,0,4.6|
2,1,6.7|
2,2,8.1|
];
constraint_x6_x2=[
0,0,4.4|
0,1,2|
0,2,3.6|
1,0,9.4|
1,1,8.1|
1,2,3.1|
2,0,6.4|
2,1,2.9|
2,2,9|
];
constraint_x6_x5=[
0,0,6.8|
0,1,8.1|
0,2,1.8|
1,0,0.045|
1,1,2.7|
1,2,1.2|
2,0,4.9|
2,1,9.1|
2,2,2.7|
];
constraint_x7_x2=[
0,0,2.8|
0,1,1.3|
0,2,7.4|
1,0,1.7|
1,1,2.3|
1,2,1.7|
2,0,7.3|
2,1,2.9|
2,2,1.8|
];
constraint_x7_x3=[
0,0,1.7|
0,1,7.8|
0,2,3.7|
1,0,1.3|
1,1,4.8|
1,2,4.8|
2,0,9.8|
2,1,8.7|
2,2,9.8|
];
constraint_x7_x4=[
0,0,3|
0,1,3.1|
0,2,9.6|
1,0,5.4|
1,1,7.4|
1,2,8|
2,0,8.4|
2,1,6.7|
2,2,0.38|
];
constraint_x7_x5=[
0,0,5.9|
0,1,6.6|
0,2,0.65|
1,0,8|
1,1,1.5|
1,2,0.29|
2,0,10|
2,1,2.6|
2,2,7.3|
];
constraint_x7_x6=[
0,0,9.3|
0,1,4.4|
0,2,7|
1,0,5.7|
1,1,8.4|
1,2,8.5|
2,0,0.29|
2,1,8.7|
2,2,4|
];
constraint_x8_x1=[
0,0,4.9|
0,1,3.5|
0,2,9.9|
1,0,1.1|
1,1,3.4|
1,2,9.7|
2,0,5.5|
2,1,7.7|
2,2,8.6|
];
constraint_x8_x2=[
0,0,8.7|
0,1,1.4|
0,2,1.3|
1,0,0.16|
1,1,8.3|
1,2,7.4|
2,0,9.5|
2,1,5.4|
2,2,2.8|
];
constraint_x8_x3=[
0,0,6.7|
0,1,2.3|
0,2,2.6|
1,0,1.6|
1,1,1.6|
1,2,7.3|
2,0,1.8|
2,1,0.6|
2,2,0.48|
];
constraint_x9_x2=[
0,0,7.3|
0,1,2.7|
0,2,6.9|
1,0,8.8|
1,1,2|
1,2,9.2|
2,0,7.6|
2,1,3.6|
2,2,4.1|
];
constraint_x9_x4=[
0,0,0.84|
0,1,0.44|
0,2,3.4|
1,0,3.9|
1,1,4.5|
1,2,5.4|
2,0,1.8|
2,1,8.9|
2,2,9.2|
];
constraint_x9_x6=[
0,0,6.1|
0,1,0.55|
0,2,5.5|
1,0,9.4|
1,1,3|
1,2,0.94|
2,0,1.7|
2,1,5.5|
2,2,10|
];
constraint_x10_x3=[
0,0,1.1|
0,1,4|
0,2,8.9|
1,0,0.11|
1,1,4.4|
1,2,9.8|
2,0,3.2|
2,1,0.78|
2,2,9.4|
];
constraint_x10_x5=[
0,0,10|
0,1,7.7|
0,2,3.4|
1,0,5.4|
1,1,4.9|
1,2,3.1|
2,0,8.6|
2,1,4.2|
2,2,1.1|
];
constraint_x10_x9=[
0,0,2.5|
0,1,7.5|
0,2,5.8|
1,0,3.2|
1,1,6.6|
1,2,1.7|
2,0,5.1|
2,1,0.78|
2,2,6.2|
];
constraint_x11_x2=[
0,0,5.5|
0,1,1.8|
0,2,7.7|
1,0,3|
1,1,6.7|
1,2,2.2|
2,0,2.3|
2,1,3.9|
2,2,1.4|
];
constraint_x11_x3=[
0,0,8.9|
0,1,1.2|
0,2,6.3|
1,0,5.7|
1,1,1.7|
1,2,0.11|
2,0,0.28|
2,1,0.64|
2,2,1.4|
];
constraint_x11_x9=[
0,0,6.2|
0,1,1.5|
0,2,7.5|
1,0,5.7|
1,1,6.1|
1,2,0.08|
2,0,4.3|
2,1,9.7|
2,2,9.5|
];
constraint_x11_x10=[
0,0,1.7|
0,1,5.4|
0,2,7|
1,0,6.3|
1,1,8.9|
1,2,6.2|
2,0,5.9|
2,1,7.4|
2,2,0.74|
];
constraint_x12_x2=[
0,0,1.6|
0,1,9.7|
0,2,1.6|
1,0,3.2|
1,1,3.9|
1,2,7.2|
2,0,5.8|
2,1,0.99|
2,2,4.3|
];
constraint_x12_x3=[
0,0,5.4|
0,1,9.7|
0,2,3.9|
1,0,6.8|
1,1,0.31|
1,2,2.7|
2,0,0.061|
2,1,8.5|
2,2,8.4|
];
constraint_x12_x4=[
0,0,0.036|
0,1,3.3|
0,2,9.8|
1,0,2.8|
1,1,6.8|
1,2,8.2|
2,0,2.6|
2,1,5.5|
2,2,9.4|
];
constraint_x12_x5=[
0,0,8|
0,1,1|
0,2,4.3|
1,0,0.64|
1,1,7.8|
1,2,9.1|
2,0,0.55|
2,1,1.6|
2,2,4.8|
];
constraint_x12_x6=[
0,0,0.043|
0,1,1.4|
0,2,1|
1,0,7.4|
1,1,3.1|
1,2,2.6|
2,0,4|
2,1,5.3|
2,2,1.9|
];
constraint_x12_x7=[
0,0,5.6|
0,1,8.5|
0,2,3.5|
1,0,6.5|
1,1,3.5|
1,2,9.1|
2,0,1.3|
2,1,1.8|
2,2,4.8|
];
constraint_x12_x9=[
0,0,0.25|
0,1,3.6|
0,2,3.8|
1,0,2.5|
1,1,3.2|
1,2,4.3|
2,0,1|
2,1,0.55|
2,2,8.1|
];
constraint_x12_x11=[
0,0,0.45|
0,1,0.05|
0,2,9.2|
1,0,9.8|
1,1,8.6|
1,2,4|
2,0,2.7|
2,1,0.64|
2,2,0.47|
];
constraint_x1_y1=[
0,0,4.5|
0,1,0.11|
0,2,9.7|
1,0,6|
1,1,5|
1,2,8|
2,0,6.9|
2,1,5|
2,2,3.3|
];
constraint_x2_y2=[
0,0,4.1|
0,1,4|
0,2,2.3|
1,0,5.1|
1,1,1|
1,2,0.95|
2,0,1.6|
2,1,0.27|
2,2,7.1|
];
constraint_x3_y3=[
0,0,5.8|
0,1,8.3|
0,2,8.3|
1,0,0.39|
1,1,2.9|
1,2,8.5|
2,0,8.7|
2,1,4.5|
2,2,0.26|
];
initial_distribution_y1=[0.13,0.4,0.47];
initial_distribution_y2=[0.47,0.13,0.41];
initial_distribution_y3=[0.6,0.32,0.082];
transition_y1=[
0.38,0.51,0.1|
0.27,0.34,0.39|
0.29,0.34,0.36|
];
transition_y2=[
0.36,0.19,0.45|
0.45,0.24,0.31|
0.58,0.15,0.27|
];
transition_y3=[
0.039,0.35,0.61|
0.45,0.11,0.45|
0.28,0.34,0.39|
];
